job_count = 35 ;
duration = [|16, 17, 11, 9, 12, 14, 10|2, 4, 5, 7, 11, 15, 5|18, 6, 15, 17, 4, 13, 3|10, 18, 9, 12, 11, 15, 12|19, 22, 6, 18, 7, 2, 12|5, 15, 2, 16, 6, 4, 5|4, 2, 4, 19, 9, 11, 4|6, 14, 3, 14, 5, 10, 11|19, 11, 9, 8, 13, 4, 13|7, 22, 10, 8, 5, 2, 4|19, 15, 7, 7, 14, 14, 3|23, 13, 4, 6, 12, 10, 11|24, 3, 11, 16, 7, 5, 11|6, 9, 5, 2, 6, 9, 6|14, 3, 14, 4, 15, 8, 12|5, 15, 17, 16, 2, 8, 4|22, 20, 2, 4, 3, 4, 8|9, 8, 7, 7, 16, 6, 10|16, 9, 18, 6, 7, 16, 5|3, 10, 14, 11, 8, 16, 6|14, 4, 5, 4, 4, 4, 3|2, 13, 9, 2, 14, 2, 6|6, 3, 2, 4, 2, 11, 7|17, 20, 3, 4, 3, 2, 12|13, 15, 3, 6, 10, 14, 5|4, 5, 8, 5, 13, 11, 8|21, 18, 6, 11, 7, 6, 7|13, 17, 18, 16, 4, 7, 2|23, 12, 11, 19, 8, 16, 10|2, 9, 7, 5, 12, 5, 7|21, 21, 3, 16, 15, 9, 14|10, 6, 8, 11, 12, 16, 3|14, 15, 13, 16, 5, 8, 6|3, 15, 21, 15, 4, 8, 5|3, 11, 18, 9, 17, 15, 7|] ;
machine_count = 7 ;
cost = [|25, 21, 24, 32, 33, 26, 33|20, 26, 34, 27, 34, 32, 52|23, 33, 35, 29, 40, 26, 46|19, 18, 20, 31, 42, 45, 48|17, 23, 25, 29, 31, 40, 27|27, 23, 29, 34, 38, 25, 46|30, 29, 31, 37, 39, 47, 39|31, 28, 18, 23, 39, 39, 52|29, 33, 20, 24, 40, 44, 40|20, 29, 31, 28, 42, 35, 36|31, 30, 21, 23, 22, 34, 41|20, 20, 28, 36, 29, 26, 29|17, 26, 25, 31, 40, 25, 28|23, 21, 22, 36, 28, 43, 53|24, 28, 28, 36, 33, 42, 30|30, 32, 29, 38, 33, 37, 45|23, 26, 20, 37, 37, 37, 50|29, 25, 28, 30, 29, 32, 35|22, 18, 28, 33, 43, 29, 49|19, 27, 34, 26, 26, 29, 52|16, 33, 27, 33, 22, 24, 47|18, 22, 33, 21, 40, 35, 43|30, 32, 31, 26, 40, 37, 40|20, 28, 29, 33, 41, 25, 28|29, 18, 21, 38, 27, 39, 53|30, 33, 30, 20, 40, 41, 33|29, 31, 30, 21, 33, 34, 30|31, 32, 25, 29, 26, 34, 46|23, 20, 23, 28, 36, 37, 41|29, 31, 29, 31, 29, 45, 29|28, 24, 26, 37, 38, 24, 39|17, 20, 31, 37, 22, 43, 43|31, 18, 28, 26, 38, 40, 41|18, 24, 27, 24, 39, 38, 51|31, 19, 34, 20, 34, 25, 31|] ;
deadline = [33, 33, 33, 33, 33, 33, 33, 33, 33, 33, 33, 33, 33, 33, 33, 33, 33, 33, 33, 33, 33, 33, 33, 33, 33, 33, 33, 33, 33, 33, 33, 33, 33, 33, 33] ;
release = [0, 0, 0, 0, 0, 0, 0, 0, 0, 0, 0, 0, 0, 0, 0, 0, 0, 0, 0, 0, 0, 0, 0, 0, 0, 0, 0, 0, 0, 0, 0, 0, 0, 0, 0] ;
resource = [|7, 7, 7, 7, 7, 7, 7|4, 4, 4, 4, 4, 4, 4|1, 1, 1, 1, 1, 1, 1|7, 7, 7, 7, 7, 7, 7|2, 2, 2, 2, 2, 2, 2|4, 4, 4, 4, 4, 4, 4|9, 9, 9, 9, 9, 9, 9|7, 7, 7, 7, 7, 7, 7|7, 7, 7, 7, 7, 7, 7|5, 5, 5, 5, 5, 5, 5|5, 5, 5, 5, 5, 5, 5|9, 9, 9, 9, 9, 9, 9|2, 2, 2, 2, 2, 2, 2|4, 4, 4, 4, 4, 4, 4|6, 6, 6, 6, 6, 6, 6|1, 1, 1, 1, 1, 1, 1|2, 2, 2, 2, 2, 2, 2|3, 3, 3, 3, 3, 3, 3|8, 8, 8, 8, 8, 8, 8|9, 9, 9, 9, 9, 9, 9|4, 4, 4, 4, 4, 4, 4|9, 9, 9, 9, 9, 9, 9|1, 1, 1, 1, 1, 1, 1|3, 3, 3, 3, 3, 3, 3|8, 8, 8, 8, 8, 8, 8|5, 5, 5, 5, 5, 5, 5|1, 1, 1, 1, 1, 1, 1|4, 4, 4, 4, 4, 4, 4|3, 3, 3, 3, 3, 3, 3|9, 9, 9, 9, 9, 9, 9|8, 8, 8, 8, 8, 8, 8|7, 7, 7, 7, 7, 7, 7|4, 4, 4, 4, 4, 4, 4|6, 6, 6, 6, 6, 6, 6|5, 5, 5, 5, 5, 5, 5|] ;
capacities = [10, 10, 10, 10, 10, 10, 10] ;
